c graph colorability of graph:
c random_regular_graph(5, 98).
c
c Generated with `cnfgen`
c (C) 2012-2016 Massimo Lauria <lauria.massimo@gmail.com>
c https://massimolauria.github.io/cnfgen
c
p cnf 294 1127
1 2 3 0
-1 -2 0
-1 -3 0
-2 -3 0
4 5 6 0
-4 -5 0
-4 -6 0
-5 -6 0
7 8 9 0
-7 -8 0
-7 -9 0
-8 -9 0
10 11 12 0
-10 -11 0
-10 -12 0
-11 -12 0
13 14 15 0
-13 -14 0
-13 -15 0
-14 -15 0
16 17 18 0
-16 -17 0
-16 -18 0
-17 -18 0
19 20 21 0
-19 -20 0
-19 -21 0
-20 -21 0
22 23 24 0
-22 -23 0
-22 -24 0
-23 -24 0
25 26 27 0
-25 -26 0
-25 -27 0
-26 -27 0
28 29 30 0
-28 -29 0
-28 -30 0
-29 -30 0
31 32 33 0
-31 -32 0
-31 -33 0
-32 -33 0
34 35 36 0
-34 -35 0
-34 -36 0
-35 -36 0
37 38 39 0
-37 -38 0
-37 -39 0
-38 -39 0
40 41 42 0
-40 -41 0
-40 -42 0
-41 -42 0
43 44 45 0
-43 -44 0
-43 -45 0
-44 -45 0
46 47 48 0
-46 -47 0
-46 -48 0
-47 -48 0
49 50 51 0
-49 -50 0
-49 -51 0
-50 -51 0
52 53 54 0
-52 -53 0
-52 -54 0
-53 -54 0
55 56 57 0
-55 -56 0
-55 -57 0
-56 -57 0
58 59 60 0
-58 -59 0
-58 -60 0
-59 -60 0
61 62 63 0
-61 -62 0
-61 -63 0
-62 -63 0
64 65 66 0
-64 -65 0
-64 -66 0
-65 -66 0
67 68 69 0
-67 -68 0
-67 -69 0
-68 -69 0
70 71 72 0
-70 -71 0
-70 -72 0
-71 -72 0
73 74 75 0
-73 -74 0
-73 -75 0
-74 -75 0
76 77 78 0
-76 -77 0
-76 -78 0
-77 -78 0
79 80 81 0
-79 -80 0
-79 -81 0
-80 -81 0
82 83 84 0
-82 -83 0
-82 -84 0
-83 -84 0
85 86 87 0
-85 -86 0
-85 -87 0
-86 -87 0
88 89 90 0
-88 -89 0
-88 -90 0
-89 -90 0
91 92 93 0
-91 -92 0
-91 -93 0
-92 -93 0
94 95 96 0
-94 -95 0
-94 -96 0
-95 -96 0
97 98 99 0
-97 -98 0
-97 -99 0
-98 -99 0
100 101 102 0
-100 -101 0
-100 -102 0
-101 -102 0
103 104 105 0
-103 -104 0
-103 -105 0
-104 -105 0
106 107 108 0
-106 -107 0
-106 -108 0
-107 -108 0
109 110 111 0
-109 -110 0
-109 -111 0
-110 -111 0
112 113 114 0
-112 -113 0
-112 -114 0
-113 -114 0
115 116 117 0
-115 -116 0
-115 -117 0
-116 -117 0
118 119 120 0
-118 -119 0
-118 -120 0
-119 -120 0
121 122 123 0
-121 -122 0
-121 -123 0
-122 -123 0
124 125 126 0
-124 -125 0
-124 -126 0
-125 -126 0
127 128 129 0
-127 -128 0
-127 -129 0
-128 -129 0
130 131 132 0
-130 -131 0
-130 -132 0
-131 -132 0
133 134 135 0
-133 -134 0
-133 -135 0
-134 -135 0
136 137 138 0
-136 -137 0
-136 -138 0
-137 -138 0
139 140 141 0
-139 -140 0
-139 -141 0
-140 -141 0
142 143 144 0
-142 -143 0
-142 -144 0
-143 -144 0
145 146 147 0
-145 -146 0
-145 -147 0
-146 -147 0
148 149 150 0
-148 -149 0
-148 -150 0
-149 -150 0
151 152 153 0
-151 -152 0
-151 -153 0
-152 -153 0
154 155 156 0
-154 -155 0
-154 -156 0
-155 -156 0
157 158 159 0
-157 -158 0
-157 -159 0
-158 -159 0
160 161 162 0
-160 -161 0
-160 -162 0
-161 -162 0
163 164 165 0
-163 -164 0
-163 -165 0
-164 -165 0
166 167 168 0
-166 -167 0
-166 -168 0
-167 -168 0
169 170 171 0
-169 -170 0
-169 -171 0
-170 -171 0
172 173 174 0
-172 -173 0
-172 -174 0
-173 -174 0
175 176 177 0
-175 -176 0
-175 -177 0
-176 -177 0
178 179 180 0
-178 -179 0
-178 -180 0
-179 -180 0
181 182 183 0
-181 -182 0
-181 -183 0
-182 -183 0
184 185 186 0
-184 -185 0
-184 -186 0
-185 -186 0
187 188 189 0
-187 -188 0
-187 -189 0
-188 -189 0
190 191 192 0
-190 -191 0
-190 -192 0
-191 -192 0
193 194 195 0
-193 -194 0
-193 -195 0
-194 -195 0
196 197 198 0
-196 -197 0
-196 -198 0
-197 -198 0
199 200 201 0
-199 -200 0
-199 -201 0
-200 -201 0
202 203 204 0
-202 -203 0
-202 -204 0
-203 -204 0
205 206 207 0
-205 -206 0
-205 -207 0
-206 -207 0
208 209 210 0
-208 -209 0
-208 -210 0
-209 -210 0
211 212 213 0
-211 -212 0
-211 -213 0
-212 -213 0
214 215 216 0
-214 -215 0
-214 -216 0
-215 -216 0
217 218 219 0
-217 -218 0
-217 -219 0
-218 -219 0
220 221 222 0
-220 -221 0
-220 -222 0
-221 -222 0
223 224 225 0
-223 -224 0
-223 -225 0
-224 -225 0
226 227 228 0
-226 -227 0
-226 -228 0
-227 -228 0
229 230 231 0
-229 -230 0
-229 -231 0
-230 -231 0
232 233 234 0
-232 -233 0
-232 -234 0
-233 -234 0
235 236 237 0
-235 -236 0
-235 -237 0
-236 -237 0
238 239 240 0
-238 -239 0
-238 -240 0
-239 -240 0
241 242 243 0
-241 -242 0
-241 -243 0
-242 -243 0
244 245 246 0
-244 -245 0
-244 -246 0
-245 -246 0
247 248 249 0
-247 -248 0
-247 -249 0
-248 -249 0
250 251 252 0
-250 -251 0
-250 -252 0
-251 -252 0
253 254 255 0
-253 -254 0
-253 -255 0
-254 -255 0
256 257 258 0
-256 -257 0
-256 -258 0
-257 -258 0
259 260 261 0
-259 -260 0
-259 -261 0
-260 -261 0
262 263 264 0
-262 -263 0
-262 -264 0
-263 -264 0
265 266 267 0
-265 -266 0
-265 -267 0
-266 -267 0
268 269 270 0
-268 -269 0
-268 -270 0
-269 -270 0
271 272 273 0
-271 -272 0
-271 -273 0
-272 -273 0
274 275 276 0
-274 -275 0
-274 -276 0
-275 -276 0
277 278 279 0
-277 -278 0
-277 -279 0
-278 -279 0
280 281 282 0
-280 -281 0
-280 -282 0
-281 -282 0
283 284 285 0
-283 -284 0
-283 -285 0
-284 -285 0
286 287 288 0
-286 -287 0
-286 -288 0
-287 -288 0
289 290 291 0
-289 -290 0
-289 -291 0
-290 -291 0
292 293 294 0
-292 -293 0
-292 -294 0
-293 -294 0
-1 -112 0
-2 -113 0
-3 -114 0
-1 -175 0
-2 -176 0
-3 -177 0
-1 -181 0
-2 -182 0
-3 -183 0
-1 -238 0
-2 -239 0
-3 -240 0
-1 -292 0
-2 -293 0
-3 -294 0
-4 -43 0
-5 -44 0
-6 -45 0
-4 -157 0
-5 -158 0
-6 -159 0
-4 -169 0
-5 -170 0
-6 -171 0
-4 -172 0
-5 -173 0
-6 -174 0
-4 -259 0
-5 -260 0
-6 -261 0
-7 -58 0
-8 -59 0
-9 -60 0
-7 -61 0
-8 -62 0
-9 -63 0
-7 -157 0
-8 -158 0
-9 -159 0
-7 -217 0
-8 -218 0
-9 -219 0
-7 -292 0
-8 -293 0
-9 -294 0
-10 -70 0
-11 -71 0
-12 -72 0
-10 -97 0
-11 -98 0
-12 -99 0
-10 -151 0
-11 -152 0
-12 -153 0
-10 -250 0
-11 -251 0
-12 -252 0
-10 -268 0
-11 -269 0
-12 -270 0
-13 -133 0
-14 -134 0
-15 -135 0
-13 -181 0
-14 -182 0
-15 -183 0
-13 -190 0
-14 -191 0
-15 -192 0
-13 -259 0
-14 -260 0
-15 -261 0
-13 -286 0
-14 -287 0
-15 -288 0
-16 -70 0
-17 -71 0
-18 -72 0
-16 -109 0
-17 -110 0
-18 -111 0
-16 -139 0
-17 -140 0
-18 -141 0
-16 -154 0
-17 -155 0
-18 -156 0
-16 -199 0
-17 -200 0
-18 -201 0
-19 -31 0
-20 -32 0
-21 -33 0
-19 -34 0
-20 -35 0
-21 -36 0
-19 -55 0
-20 -56 0
-21 -57 0
-19 -169 0
-20 -170 0
-21 -171 0
-19 -253 0
-20 -254 0
-21 -255 0
-22 -37 0
-23 -38 0
-24 -39 0
-22 -154 0
-23 -155 0
-24 -156 0
-22 -163 0
-23 -164 0
-24 -165 0
-22 -178 0
-23 -179 0
-24 -180 0
-22 -289 0
-23 -290 0
-24 -291 0
-25 -121 0
-26 -122 0
-27 -123 0
-25 -175 0
-26 -176 0
-27 -177 0
-25 -232 0
-26 -233 0
-27 -234 0
-25 -244 0
-26 -245 0
-27 -246 0
-25 -286 0
-26 -287 0
-27 -288 0
-28 -55 0
-29 -56 0
-30 -57 0
-28 -163 0
-29 -164 0
-30 -165 0
-28 -175 0
-29 -176 0
-30 -177 0
-28 -244 0
-29 -245 0
-30 -246 0
-28 -256 0
-29 -257 0
-30 -258 0
-31 -115 0
-32 -116 0
-33 -117 0
-31 -211 0
-32 -212 0
-33 -213 0
-31 -223 0
-32 -224 0
-33 -225 0
-31 -280 0
-32 -281 0
-33 -282 0
-34 -55 0
-35 -56 0
-36 -57 0
-34 -118 0
-35 -119 0
-36 -120 0
-34 -136 0
-35 -137 0
-36 -138 0
-34 -184 0
-35 -185 0
-36 -186 0
-37 -91 0
-38 -92 0
-39 -93 0
-37 -193 0
-38 -194 0
-39 -195 0
-37 -196 0
-38 -197 0
-39 -198 0
-37 -259 0
-38 -260 0
-39 -261 0
-40 -55 0
-41 -56 0
-42 -57 0
-40 -109 0
-41 -110 0
-42 -111 0
-40 -163 0
-41 -164 0
-42 -165 0
-40 -211 0
-41 -212 0
-42 -213 0
-40 -283 0
-41 -284 0
-42 -285 0
-43 -70 0
-44 -71 0
-45 -72 0
-43 -127 0
-44 -128 0
-45 -129 0
-43 -208 0
-44 -209 0
-45 -210 0
-43 -244 0
-44 -245 0
-45 -246 0
-46 -55 0
-47 -56 0
-48 -57 0
-46 -112 0
-47 -113 0
-48 -114 0
-46 -124 0
-47 -125 0
-48 -126 0
-46 -148 0
-47 -149 0
-48 -150 0
-46 -184 0
-47 -185 0
-48 -186 0
-49 -85 0
-50 -86 0
-51 -87 0
-49 -88 0
-50 -89 0
-51 -90 0
-49 -121 0
-50 -122 0
-51 -123 0
-49 -172 0
-50 -173 0
-51 -174 0
-49 -205 0
-50 -206 0
-51 -207 0
-52 -181 0
-53 -182 0
-54 -183 0
-52 -187 0
-53 -188 0
-54 -189 0
-52 -250 0
-53 -251 0
-54 -252 0
-52 -262 0
-53 -263 0
-54 -264 0
-52 -280 0
-53 -281 0
-54 -282 0
-58 -208 0
-59 -209 0
-60 -210 0
-58 -280 0
-59 -281 0
-60 -282 0
-58 -283 0
-59 -284 0
-60 -285 0
-58 -289 0
-59 -290 0
-60 -291 0
-61 -67 0
-62 -68 0
-63 -69 0
-61 -139 0
-62 -140 0
-63 -141 0
-61 -178 0
-62 -179 0
-63 -180 0
-61 -193 0
-62 -194 0
-63 -195 0
-64 -76 0
-65 -77 0
-66 -78 0
-64 -166 0
-65 -167 0
-66 -168 0
-64 -211 0
-65 -212 0
-66 -213 0
-64 -229 0
-65 -230 0
-66 -231 0
-64 -268 0
-65 -269 0
-66 -270 0
-67 -94 0
-68 -95 0
-69 -96 0
-67 -106 0
-68 -107 0
-69 -108 0
-67 -121 0
-68 -122 0
-69 -123 0
-67 -265 0
-68 -266 0
-69 -267 0
-70 -94 0
-71 -95 0
-72 -96 0
-70 -217 0
-71 -218 0
-72 -219 0
-73 -130 0
-74 -131 0
-75 -132 0
-73 -142 0
-74 -143 0
-75 -144 0
-73 -193 0
-74 -194 0
-75 -195 0
-73 -202 0
-74 -203 0
-75 -204 0
-73 -214 0
-74 -215 0
-75 -216 0
-76 -115 0
-77 -116 0
-78 -117 0
-76 -124 0
-77 -125 0
-78 -126 0
-76 -133 0
-77 -134 0
-78 -135 0
-76 -184 0
-77 -185 0
-78 -186 0
-79 -88 0
-80 -89 0
-81 -90 0
-79 -235 0
-80 -236 0
-81 -237 0
-79 -250 0
-80 -251 0
-81 -252 0
-79 -262 0
-80 -263 0
-81 -264 0
-79 -292 0
-80 -293 0
-81 -294 0
-82 -85 0
-83 -86 0
-84 -87 0
-82 -133 0
-83 -134 0
-84 -135 0
-82 -157 0
-83 -158 0
-84 -159 0
-82 -226 0
-83 -227 0
-84 -228 0
-82 -286 0
-83 -287 0
-84 -288 0
-85 -175 0
-86 -176 0
-87 -177 0
-85 -223 0
-86 -224 0
-87 -225 0
-85 -274 0
-86 -275 0
-87 -276 0
-88 -154 0
-89 -155 0
-90 -156 0
-88 -190 0
-89 -191 0
-90 -192 0
-88 -247 0
-89 -248 0
-90 -249 0
-91 -118 0
-92 -119 0
-93 -120 0
-91 -148 0
-92 -149 0
-93 -150 0
-91 -211 0
-92 -212 0
-93 -213 0
-91 -292 0
-92 -293 0
-93 -294 0
-94 -217 0
-95 -218 0
-96 -219 0
-94 -229 0
-95 -230 0
-96 -231 0
-94 -256 0
-95 -257 0
-96 -258 0
-97 -103 0
-98 -104 0
-99 -105 0
-97 -136 0
-98 -137 0
-99 -138 0
-97 -166 0
-98 -167 0
-99 -168 0
-97 -208 0
-98 -209 0
-99 -210 0
-100 -124 0
-101 -125 0
-102 -126 0
-100 -136 0
-101 -137 0
-102 -138 0
-100 -196 0
-101 -197 0
-102 -198 0
-100 -199 0
-101 -200 0
-102 -201 0
-100 -274 0
-101 -275 0
-102 -276 0
-103 -139 0
-104 -140 0
-105 -141 0
-103 -142 0
-104 -143 0
-105 -144 0
-103 -214 0
-104 -215 0
-105 -216 0
-103 -289 0
-104 -290 0
-105 -291 0
-106 -109 0
-107 -110 0
-108 -111 0
-106 -133 0
-107 -134 0
-108 -135 0
-106 -199 0
-107 -200 0
-108 -201 0
-106 -277 0
-107 -278 0
-108 -279 0
-109 -112 0
-110 -113 0
-111 -114 0
-109 -238 0
-110 -239 0
-111 -240 0
-112 -250 0
-113 -251 0
-114 -252 0
-112 -268 0
-113 -269 0
-114 -270 0
-115 -238 0
-116 -239 0
-117 -240 0
-115 -274 0
-116 -275 0
-117 -276 0
-115 -283 0
-116 -284 0
-117 -285 0
-118 -160 0
-119 -161 0
-120 -162 0
-118 -223 0
-119 -224 0
-120 -225 0
-118 -247 0
-119 -248 0
-120 -249 0
-121 -151 0
-122 -152 0
-123 -153 0
-121 -214 0
-122 -215 0
-123 -216 0
-124 -253 0
-125 -254 0
-126 -255 0
-124 -262 0
-125 -263 0
-126 -264 0
-127 -160 0
-128 -161 0
-129 -162 0
-127 -205 0
-128 -206 0
-129 -207 0
-127 -226 0
-128 -227 0
-129 -228 0
-127 -280 0
-128 -281 0
-129 -282 0
-130 -142 0
-131 -143 0
-132 -144 0
-130 -145 0
-131 -146 0
-132 -147 0
-130 -172 0
-131 -173 0
-132 -174 0
-130 -178 0
-131 -179 0
-132 -180 0
-133 -217 0
-134 -218 0
-135 -219 0
-136 -205 0
-137 -206 0
-138 -207 0
-136 -277 0
-137 -278 0
-138 -279 0
-139 -145 0
-140 -146 0
-141 -147 0
-139 -265 0
-140 -266 0
-141 -267 0
-142 -169 0
-143 -170 0
-144 -171 0
-142 -229 0
-143 -230 0
-144 -231 0
-145 -208 0
-146 -209 0
-147 -210 0
-145 -223 0
-146 -224 0
-147 -225 0
-145 -226 0
-146 -227 0
-147 -228 0
-148 -154 0
-149 -155 0
-150 -156 0
-148 -235 0
-149 -236 0
-150 -237 0
-148 -265 0
-149 -266 0
-150 -267 0
-151 -160 0
-152 -161 0
-153 -162 0
-151 -187 0
-152 -188 0
-153 -189 0
-151 -202 0
-152 -203 0
-153 -204 0
-154 -247 0
-155 -248 0
-156 -249 0
-157 -211 0
-158 -212 0
-159 -213 0
-157 -223 0
-158 -224 0
-159 -225 0
-160 -235 0
-161 -236 0
-162 -237 0
-160 -274 0
-161 -275 0
-162 -276 0
-163 -172 0
-164 -173 0
-165 -174 0
-163 -235 0
-164 -236 0
-165 -237 0
-166 -202 0
-167 -203 0
-168 -204 0
-166 -205 0
-167 -206 0
-168 -207 0
-166 -241 0
-167 -242 0
-168 -243 0
-169 -226 0
-170 -227 0
-171 -228 0
-169 -241 0
-170 -242 0
-171 -243 0
-172 -187 0
-173 -188 0
-174 -189 0
-175 -220 0
-176 -221 0
-177 -222 0
-178 -271 0
-179 -272 0
-180 -273 0
-178 -283 0
-179 -284 0
-180 -285 0
-181 -232 0
-182 -233 0
-183 -234 0
-181 -265 0
-182 -266 0
-183 -267 0
-184 -190 0
-185 -191 0
-186 -192 0
-184 -286 0
-185 -287 0
-186 -288 0
-187 -241 0
-188 -242 0
-189 -243 0
-187 -256 0
-188 -257 0
-189 -258 0
-190 -199 0
-191 -200 0
-192 -201 0
-190 -250 0
-191 -251 0
-192 -252 0
-193 -256 0
-194 -257 0
-195 -258 0
-193 -262 0
-194 -263 0
-195 -264 0
-196 -226 0
-197 -227 0
-198 -228 0
-196 -244 0
-197 -245 0
-198 -246 0
-196 -268 0
-197 -269 0
-198 -270 0
-199 -232 0
-200 -233 0
-201 -234 0
-202 -238 0
-203 -239 0
-204 -240 0
-202 -271 0
-203 -272 0
-204 -273 0
-205 -271 0
-206 -272 0
-207 -273 0
-208 -232 0
-209 -233 0
-210 -234 0
-214 -217 0
-215 -218 0
-216 -219 0
-214 -271 0
-215 -272 0
-216 -273 0
-220 -229 0
-221 -230 0
-222 -231 0
-220 -235 0
-221 -236 0
-222 -237 0
-220 -265 0
-221 -266 0
-222 -267 0
-220 -286 0
-221 -287 0
-222 -288 0
-229 -253 0
-230 -254 0
-231 -255 0
-232 -268 0
-233 -269 0
-234 -270 0
-238 -280 0
-239 -281 0
-240 -282 0
-241 -256 0
-242 -257 0
-243 -258 0
-241 -271 0
-242 -272 0
-243 -273 0
-244 -277 0
-245 -278 0
-246 -279 0
-247 -253 0
-248 -254 0
-249 -255 0
-247 -259 0
-248 -260 0
-249 -261 0
-253 -289 0
-254 -290 0
-255 -291 0
-259 -289 0
-260 -290 0
-261 -291 0
-262 -292 0
-263 -293 0
-264 -294 0
-274 -277 0
-275 -278 0
-276 -279 0
-277 -283 0
-278 -284 0
-279 -285 0
